p cnf 74 822
c one port of a gate receives one connection
-1 -2 0
-1 -3 0
-4 -1 0
-3 -2 0
-4 -3 0
-5 -6 0
-5 -7 0
-5 -8 0
-9 -5 0
-7 -6 0
-9 -7 0
-9 -8 0
-10 -5 0
-8 -6 0
-10 -9 0
-8 -7 0
-10 -8 0
-11 -12 0
-11 -13 0
-11 -14 0
-11 -15 0
-16 -11 0
-13 -12 0
-16 -13 0
-16 -14 0
-16 -15 0
-17 -11 0
-14 -12 0
-17 -16 0
-14 -13 0
-17 -14 0
-17 -15 0
-18 -11 0
-15 -12 0
-18 -16 0
-15 -13 0
-18 -17 0
-15 -14 0
-18 -15 0
-19 -20 0
-19 -21 0
-19 -22 0
-19 -23 0
-19 -24 0
-25 -19 0
-21 -20 0
-25 -21 0
-25 -22 0
-25 -23 0
-25 -24 0
-26 -19 0
-22 -20 0
-26 -25 0
-22 -21 0
-26 -22 0
-26 -23 0
-26 -24 0
-27 -19 0
-23 -20 0
-27 -25 0
-23 -21 0
-27 -26 0
-23 -22 0
-27 -23 0
-27 -24 0
-28 -19 0
-24 -20 0
-28 -25 0
-24 -21 0
-28 -26 0
-24 -22 0
-28 -27 0
-24 -23 0
-28 -24 0
1 4 0
2 3 0
5 9 10 0
6 7 8 0
11 16 17 18 0
12 13 14 15 0
19 25 26 27 28 0
20 21 22 23 24 0
c one output of the circuit receives one connection
-29 -30 0
-31 -30 0
-31 -29 0
-32 -30 0
-32 -29 0
-32 -31 0
-33 -30 0
-33 -29 0
-33 -31 0
-33 -32 0
-34 -30 0
-34 -29 0
-34 -31 0
-34 -32 0
-34 -33 0
30 29 31 32 33 34 0
c input gate has input value
-35 0
36 0
-37 0
38 0
-39 0
-40 0
41 0
42 0
c internal gates produce calculated value
-4 -2 39 35 -43 44 0
-4 -2 39 35 43 -44 0
-4 -2 39 -35 -43 45 0
-4 -2 39 -35 43 -45 0
-4 -2 -39 35 -43 46 0
-4 -2 -39 35 43 -46 0
-4 -2 -39 -35 -43 47 0
-4 -2 -39 -35 43 -47 0
-4 -2 40 36 -48 44 0
-4 -2 40 36 48 -44 0
-4 -2 40 -36 -48 45 0
-4 -2 40 -36 48 -45 0
-4 -2 -40 36 -48 46 0
-4 -2 -40 36 48 -46 0
-4 -2 -40 -36 -48 47 0
-4 -2 -40 -36 48 -47 0
-4 -2 41 37 -49 44 0
-4 -2 41 37 49 -44 0
-4 -2 41 -37 -49 45 0
-4 -2 41 -37 49 -45 0
-4 -2 -41 37 -49 46 0
-4 -2 -41 37 49 -46 0
-4 -2 -41 -37 -49 47 0
-4 -2 -41 -37 49 -47 0
-4 -2 42 38 -50 44 0
-4 -2 42 38 50 -44 0
-4 -2 42 -38 -50 45 0
-4 -2 42 -38 50 -45 0
-4 -2 -42 38 -50 46 0
-4 -2 -42 38 50 -46 0
-4 -2 -42 -38 -50 47 0
-4 -2 -42 -38 50 -47 0
-9 -6 39 35 -51 52 0
-9 -6 39 35 51 -52 0
-9 -6 39 -35 -51 53 0
-9 -6 39 -35 51 -53 0
-9 -6 -39 35 -51 54 0
-9 -6 -39 35 51 -54 0
-9 -6 -39 -35 -51 55 0
-9 -6 -39 -35 51 -55 0
-9 -6 40 36 -56 52 0
-9 -6 40 36 56 -52 0
-9 -6 40 -36 -56 53 0
-9 -6 40 -36 56 -53 0
-9 -6 -40 36 -56 54 0
-9 -6 -40 36 56 -54 0
-9 -6 -40 -36 -56 55 0
-9 -6 -40 -36 56 -55 0
-9 -6 41 37 -57 52 0
-9 -6 41 37 57 -52 0
-9 -6 41 -37 -57 53 0
-9 -6 41 -37 57 -53 0
-9 -6 -41 37 -57 54 0
-9 -6 -41 37 57 -54 0
-9 -6 -41 -37 -57 55 0
-9 -6 -41 -37 57 -55 0
-9 -6 42 38 -58 52 0
-9 -6 42 38 58 -52 0
-9 -6 42 -38 -58 53 0
-9 -6 42 -38 58 -53 0
-9 -6 -42 38 -58 54 0
-9 -6 -42 38 58 -54 0
-9 -6 -42 -38 -58 55 0
-9 -6 -42 -38 58 -55 0
-10 -6 43 35 -51 52 0
-10 -6 43 35 51 -52 0
-10 -6 43 -35 -51 53 0
-10 -6 43 -35 51 -53 0
-10 -6 -43 35 -51 54 0
-10 -6 -43 35 51 -54 0
-10 -6 -43 -35 -51 55 0
-10 -6 -43 -35 51 -55 0
-10 -6 48 36 -56 52 0
-10 -6 48 36 56 -52 0
-10 -6 48 -36 -56 53 0
-10 -6 48 -36 56 -53 0
-10 -6 -48 36 -56 54 0
-10 -6 -48 36 56 -54 0
-10 -6 -48 -36 -56 55 0
-10 -6 -48 -36 56 -55 0
-10 -6 49 37 -57 52 0
-10 -6 49 37 57 -52 0
-10 -6 49 -37 -57 53 0
-10 -6 49 -37 57 -53 0
-10 -6 -49 37 -57 54 0
-10 -6 -49 37 57 -54 0
-10 -6 -49 -37 -57 55 0
-10 -6 -49 -37 57 -55 0
-10 -6 50 38 -58 52 0
-10 -6 50 38 58 -52 0
-10 -6 50 -38 -58 53 0
-10 -6 50 -38 58 -53 0
-10 -6 -50 38 -58 54 0
-10 -6 -50 38 58 -54 0
-10 -6 -50 -38 -58 55 0
-10 -6 -50 -38 58 -55 0
-10 -7 43 39 -51 52 0
-10 -7 43 39 51 -52 0
-10 -7 43 -39 -51 53 0
-10 -7 43 -39 51 -53 0
-10 -7 -43 39 -51 54 0
-10 -7 -43 39 51 -54 0
-10 -7 -43 -39 -51 55 0
-10 -7 -43 -39 51 -55 0
-10 -7 48 40 -56 52 0
-10 -7 48 40 56 -52 0
-10 -7 48 -40 -56 53 0
-10 -7 48 -40 56 -53 0
-10 -7 -48 40 -56 54 0
-10 -7 -48 40 56 -54 0
-10 -7 -48 -40 -56 55 0
-10 -7 -48 -40 56 -55 0
-10 -7 49 41 -57 52 0
-10 -7 49 41 57 -52 0
-10 -7 49 -41 -57 53 0
-10 -7 49 -41 57 -53 0
-10 -7 -49 41 -57 54 0
-10 -7 -49 41 57 -54 0
-10 -7 -49 -41 -57 55 0
-10 -7 -49 -41 57 -55 0
-10 -7 50 42 -58 52 0
-10 -7 50 42 58 -52 0
-10 -7 50 -42 -58 53 0
-10 -7 50 -42 58 -53 0
-10 -7 -50 42 -58 54 0
-10 -7 -50 42 58 -54 0
-10 -7 -50 -42 -58 55 0
-10 -7 -50 -42 58 -55 0
-16 -12 39 35 -59 60 0
-16 -12 39 35 59 -60 0
-16 -12 39 -35 -59 61 0
-16 -12 39 -35 59 -61 0
-16 -12 -39 35 -59 62 0
-16 -12 -39 35 59 -62 0
-16 -12 -39 -35 -59 63 0
-16 -12 -39 -35 59 -63 0
-16 -12 40 36 -64 60 0
-16 -12 40 36 64 -60 0
-16 -12 40 -36 -64 61 0
-16 -12 40 -36 64 -61 0
-16 -12 -40 36 -64 62 0
-16 -12 -40 36 64 -62 0
-16 -12 -40 -36 -64 63 0
-16 -12 -40 -36 64 -63 0
-16 -12 41 37 -65 60 0
-16 -12 41 37 65 -60 0
-16 -12 41 -37 -65 61 0
-16 -12 41 -37 65 -61 0
-16 -12 -41 37 -65 62 0
-16 -12 -41 37 65 -62 0
-16 -12 -41 -37 -65 63 0
-16 -12 -41 -37 65 -63 0
-16 -12 42 38 -66 60 0
-16 -12 42 38 66 -60 0
-16 -12 42 -38 -66 61 0
-16 -12 42 -38 66 -61 0
-16 -12 -42 38 -66 62 0
-16 -12 -42 38 66 -62 0
-16 -12 -42 -38 -66 63 0
-16 -12 -42 -38 66 -63 0
-17 -12 43 35 -59 60 0
-17 -12 43 35 59 -60 0
-17 -12 43 -35 -59 61 0
-17 -12 43 -35 59 -61 0
-17 -12 -43 35 -59 62 0
-17 -12 -43 35 59 -62 0
-17 -12 -43 -35 -59 63 0
-17 -12 -43 -35 59 -63 0
-17 -12 48 36 -64 60 0
-17 -12 48 36 64 -60 0
-17 -12 48 -36 -64 61 0
-17 -12 48 -36 64 -61 0
-17 -12 -48 36 -64 62 0
-17 -12 -48 36 64 -62 0
-17 -12 -48 -36 -64 63 0
-17 -12 -48 -36 64 -63 0
-17 -12 49 37 -65 60 0
-17 -12 49 37 65 -60 0
-17 -12 49 -37 -65 61 0
-17 -12 49 -37 65 -61 0
-17 -12 -49 37 -65 62 0
-17 -12 -49 37 65 -62 0
-17 -12 -49 -37 -65 63 0
-17 -12 -49 -37 65 -63 0
-17 -12 50 38 -66 60 0
-17 -12 50 38 66 -60 0
-17 -12 50 -38 -66 61 0
-17 -12 50 -38 66 -61 0
-17 -12 -50 38 -66 62 0
-17 -12 -50 38 66 -62 0
-17 -12 -50 -38 -66 63 0
-17 -12 -50 -38 66 -63 0
-17 -13 43 39 -59 60 0
-17 -13 43 39 59 -60 0
-17 -13 43 -39 -59 61 0
-17 -13 43 -39 59 -61 0
-17 -13 -43 39 -59 62 0
-17 -13 -43 39 59 -62 0
-17 -13 -43 -39 -59 63 0
-17 -13 -43 -39 59 -63 0
-17 -13 48 40 -64 60 0
-17 -13 48 40 64 -60 0
-17 -13 48 -40 -64 61 0
-17 -13 48 -40 64 -61 0
-17 -13 -48 40 -64 62 0
-17 -13 -48 40 64 -62 0
-17 -13 -48 -40 -64 63 0
-17 -13 -48 -40 64 -63 0
-17 -13 49 41 -65 60 0
-17 -13 49 41 65 -60 0
-17 -13 49 -41 -65 61 0
-17 -13 49 -41 65 -61 0
-17 -13 -49 41 -65 62 0
-17 -13 -49 41 65 -62 0
-17 -13 -49 -41 -65 63 0
-17 -13 -49 -41 65 -63 0
-17 -13 50 42 -66 60 0
-17 -13 50 42 66 -60 0
-17 -13 50 -42 -66 61 0
-17 -13 50 -42 66 -61 0
-17 -13 -50 42 -66 62 0
-17 -13 -50 42 66 -62 0
-17 -13 -50 -42 -66 63 0
-17 -13 -50 -42 66 -63 0
-18 -12 51 35 -59 60 0
-18 -12 51 35 59 -60 0
-18 -12 51 -35 -59 61 0
-18 -12 51 -35 59 -61 0
-18 -12 -51 35 -59 62 0
-18 -12 -51 35 59 -62 0
-18 -12 -51 -35 -59 63 0
-18 -12 -51 -35 59 -63 0
-18 -12 56 36 -64 60 0
-18 -12 56 36 64 -60 0
-18 -12 56 -36 -64 61 0
-18 -12 56 -36 64 -61 0
-18 -12 -56 36 -64 62 0
-18 -12 -56 36 64 -62 0
-18 -12 -56 -36 -64 63 0
-18 -12 -56 -36 64 -63 0
-18 -12 57 37 -65 60 0
-18 -12 57 37 65 -60 0
-18 -12 57 -37 -65 61 0
-18 -12 57 -37 65 -61 0
-18 -12 -57 37 -65 62 0
-18 -12 -57 37 65 -62 0
-18 -12 -57 -37 -65 63 0
-18 -12 -57 -37 65 -63 0
-18 -12 58 38 -66 60 0
-18 -12 58 38 66 -60 0
-18 -12 58 -38 -66 61 0
-18 -12 58 -38 66 -61 0
-18 -12 -58 38 -66 62 0
-18 -12 -58 38 66 -62 0
-18 -12 -58 -38 -66 63 0
-18 -12 -58 -38 66 -63 0
-18 -13 51 39 -59 60 0
-18 -13 51 39 59 -60 0
-18 -13 51 -39 -59 61 0
-18 -13 51 -39 59 -61 0
-18 -13 -51 39 -59 62 0
-18 -13 -51 39 59 -62 0
-18 -13 -51 -39 -59 63 0
-18 -13 -51 -39 59 -63 0
-18 -13 56 40 -64 60 0
-18 -13 56 40 64 -60 0
-18 -13 56 -40 -64 61 0
-18 -13 56 -40 64 -61 0
-18 -13 -56 40 -64 62 0
-18 -13 -56 40 64 -62 0
-18 -13 -56 -40 -64 63 0
-18 -13 -56 -40 64 -63 0
-18 -13 57 41 -65 60 0
-18 -13 57 41 65 -60 0
-18 -13 57 -41 -65 61 0
-18 -13 57 -41 65 -61 0
-18 -13 -57 41 -65 62 0
-18 -13 -57 41 65 -62 0
-18 -13 -57 -41 -65 63 0
-18 -13 -57 -41 65 -63 0
-18 -13 58 42 -66 60 0
-18 -13 58 42 66 -60 0
-18 -13 58 -42 -66 61 0
-18 -13 58 -42 66 -61 0
-18 -13 -58 42 -66 62 0
-18 -13 -58 42 66 -62 0
-18 -13 -58 -42 -66 63 0
-18 -13 -58 -42 66 -63 0
-18 -14 51 43 -59 60 0
-18 -14 51 43 59 -60 0
-18 -14 51 -43 -59 61 0
-18 -14 51 -43 59 -61 0
-18 -14 -51 43 -59 62 0
-18 -14 -51 43 59 -62 0
-18 -14 -51 -43 -59 63 0
-18 -14 -51 -43 59 -63 0
-18 -14 56 48 -64 60 0
-18 -14 56 48 64 -60 0
-18 -14 56 -48 -64 61 0
-18 -14 56 -48 64 -61 0
-18 -14 -56 48 -64 62 0
-18 -14 -56 48 64 -62 0
-18 -14 -56 -48 -64 63 0
-18 -14 -56 -48 64 -63 0
-18 -14 57 49 -65 60 0
-18 -14 57 49 65 -60 0
-18 -14 57 -49 -65 61 0
-18 -14 57 -49 65 -61 0
-18 -14 -57 49 -65 62 0
-18 -14 -57 49 65 -62 0
-18 -14 -57 -49 -65 63 0
-18 -14 -57 -49 65 -63 0
-18 -14 58 50 -66 60 0
-18 -14 58 50 66 -60 0
-18 -14 58 -50 -66 61 0
-18 -14 58 -50 66 -61 0
-18 -14 -58 50 -66 62 0
-18 -14 -58 50 66 -62 0
-18 -14 -58 -50 -66 63 0
-18 -14 -58 -50 66 -63 0
-25 -20 39 35 -67 68 0
-25 -20 39 35 67 -68 0
-25 -20 39 -35 -67 69 0
-25 -20 39 -35 67 -69 0
-25 -20 -39 35 -67 70 0
-25 -20 -39 35 67 -70 0
-25 -20 -39 -35 -67 71 0
-25 -20 -39 -35 67 -71 0
-25 -20 40 36 -72 68 0
-25 -20 40 36 72 -68 0
-25 -20 40 -36 -72 69 0
-25 -20 40 -36 72 -69 0
-25 -20 -40 36 -72 70 0
-25 -20 -40 36 72 -70 0
-25 -20 -40 -36 -72 71 0
-25 -20 -40 -36 72 -71 0
-25 -20 41 37 -73 68 0
-25 -20 41 37 73 -68 0
-25 -20 41 -37 -73 69 0
-25 -20 41 -37 73 -69 0
-25 -20 -41 37 -73 70 0
-25 -20 -41 37 73 -70 0
-25 -20 -41 -37 -73 71 0
-25 -20 -41 -37 73 -71 0
-25 -20 42 38 -74 68 0
-25 -20 42 38 74 -68 0
-25 -20 42 -38 -74 69 0
-25 -20 42 -38 74 -69 0
-25 -20 -42 38 -74 70 0
-25 -20 -42 38 74 -70 0
-25 -20 -42 -38 -74 71 0
-25 -20 -42 -38 74 -71 0
-26 -20 43 35 -67 68 0
-26 -20 43 35 67 -68 0
-26 -20 43 -35 -67 69 0
-26 -20 43 -35 67 -69 0
-26 -20 -43 35 -67 70 0
-26 -20 -43 35 67 -70 0
-26 -20 -43 -35 -67 71 0
-26 -20 -43 -35 67 -71 0
-26 -20 48 36 -72 68 0
-26 -20 48 36 72 -68 0
-26 -20 48 -36 -72 69 0
-26 -20 48 -36 72 -69 0
-26 -20 -48 36 -72 70 0
-26 -20 -48 36 72 -70 0
-26 -20 -48 -36 -72 71 0
-26 -20 -48 -36 72 -71 0
-26 -20 49 37 -73 68 0
-26 -20 49 37 73 -68 0
-26 -20 49 -37 -73 69 0
-26 -20 49 -37 73 -69 0
-26 -20 -49 37 -73 70 0
-26 -20 -49 37 73 -70 0
-26 -20 -49 -37 -73 71 0
-26 -20 -49 -37 73 -71 0
-26 -20 50 38 -74 68 0
-26 -20 50 38 74 -68 0
-26 -20 50 -38 -74 69 0
-26 -20 50 -38 74 -69 0
-26 -20 -50 38 -74 70 0
-26 -20 -50 38 74 -70 0
-26 -20 -50 -38 -74 71 0
-26 -20 -50 -38 74 -71 0
-26 -21 43 39 -67 68 0
-26 -21 43 39 67 -68 0
-26 -21 43 -39 -67 69 0
-26 -21 43 -39 67 -69 0
-26 -21 -43 39 -67 70 0
-26 -21 -43 39 67 -70 0
-26 -21 -43 -39 -67 71 0
-26 -21 -43 -39 67 -71 0
-26 -21 48 40 -72 68 0
-26 -21 48 40 72 -68 0
-26 -21 48 -40 -72 69 0
-26 -21 48 -40 72 -69 0
-26 -21 -48 40 -72 70 0
-26 -21 -48 40 72 -70 0
-26 -21 -48 -40 -72 71 0
-26 -21 -48 -40 72 -71 0
-26 -21 49 41 -73 68 0
-26 -21 49 41 73 -68 0
-26 -21 49 -41 -73 69 0
-26 -21 49 -41 73 -69 0
-26 -21 -49 41 -73 70 0
-26 -21 -49 41 73 -70 0
-26 -21 -49 -41 -73 71 0
-26 -21 -49 -41 73 -71 0
-26 -21 50 42 -74 68 0
-26 -21 50 42 74 -68 0
-26 -21 50 -42 -74 69 0
-26 -21 50 -42 74 -69 0
-26 -21 -50 42 -74 70 0
-26 -21 -50 42 74 -70 0
-26 -21 -50 -42 -74 71 0
-26 -21 -50 -42 74 -71 0
-27 -20 51 35 -67 68 0
-27 -20 51 35 67 -68 0
-27 -20 51 -35 -67 69 0
-27 -20 51 -35 67 -69 0
-27 -20 -51 35 -67 70 0
-27 -20 -51 35 67 -70 0
-27 -20 -51 -35 -67 71 0
-27 -20 -51 -35 67 -71 0
-27 -20 56 36 -72 68 0
-27 -20 56 36 72 -68 0
-27 -20 56 -36 -72 69 0
-27 -20 56 -36 72 -69 0
-27 -20 -56 36 -72 70 0
-27 -20 -56 36 72 -70 0
-27 -20 -56 -36 -72 71 0
-27 -20 -56 -36 72 -71 0
-27 -20 57 37 -73 68 0
-27 -20 57 37 73 -68 0
-27 -20 57 -37 -73 69 0
-27 -20 57 -37 73 -69 0
-27 -20 -57 37 -73 70 0
-27 -20 -57 37 73 -70 0
-27 -20 -57 -37 -73 71 0
-27 -20 -57 -37 73 -71 0
-27 -20 58 38 -74 68 0
-27 -20 58 38 74 -68 0
-27 -20 58 -38 -74 69 0
-27 -20 58 -38 74 -69 0
-27 -20 -58 38 -74 70 0
-27 -20 -58 38 74 -70 0
-27 -20 -58 -38 -74 71 0
-27 -20 -58 -38 74 -71 0
-27 -21 51 39 -67 68 0
-27 -21 51 39 67 -68 0
-27 -21 51 -39 -67 69 0
-27 -21 51 -39 67 -69 0
-27 -21 -51 39 -67 70 0
-27 -21 -51 39 67 -70 0
-27 -21 -51 -39 -67 71 0
-27 -21 -51 -39 67 -71 0
-27 -21 56 40 -72 68 0
-27 -21 56 40 72 -68 0
-27 -21 56 -40 -72 69 0
-27 -21 56 -40 72 -69 0
-27 -21 -56 40 -72 70 0
-27 -21 -56 40 72 -70 0
-27 -21 -56 -40 -72 71 0
-27 -21 -56 -40 72 -71 0
-27 -21 57 41 -73 68 0
-27 -21 57 41 73 -68 0
-27 -21 57 -41 -73 69 0
-27 -21 57 -41 73 -69 0
-27 -21 -57 41 -73 70 0
-27 -21 -57 41 73 -70 0
-27 -21 -57 -41 -73 71 0
-27 -21 -57 -41 73 -71 0
-27 -21 58 42 -74 68 0
-27 -21 58 42 74 -68 0
-27 -21 58 -42 -74 69 0
-27 -21 58 -42 74 -69 0
-27 -21 -58 42 -74 70 0
-27 -21 -58 42 74 -70 0
-27 -21 -58 -42 -74 71 0
-27 -21 -58 -42 74 -71 0
-27 -22 51 43 -67 68 0
-27 -22 51 43 67 -68 0
-27 -22 51 -43 -67 69 0
-27 -22 51 -43 67 -69 0
-27 -22 -51 43 -67 70 0
-27 -22 -51 43 67 -70 0
-27 -22 -51 -43 -67 71 0
-27 -22 -51 -43 67 -71 0
-27 -22 56 48 -72 68 0
-27 -22 56 48 72 -68 0
-27 -22 56 -48 -72 69 0
-27 -22 56 -48 72 -69 0
-27 -22 -56 48 -72 70 0
-27 -22 -56 48 72 -70 0
-27 -22 -56 -48 -72 71 0
-27 -22 -56 -48 72 -71 0
-27 -22 57 49 -73 68 0
-27 -22 57 49 73 -68 0
-27 -22 57 -49 -73 69 0
-27 -22 57 -49 73 -69 0
-27 -22 -57 49 -73 70 0
-27 -22 -57 49 73 -70 0
-27 -22 -57 -49 -73 71 0
-27 -22 -57 -49 73 -71 0
-27 -22 58 50 -74 68 0
-27 -22 58 50 74 -68 0
-27 -22 58 -50 -74 69 0
-27 -22 58 -50 74 -69 0
-27 -22 -58 50 -74 70 0
-27 -22 -58 50 74 -70 0
-27 -22 -58 -50 -74 71 0
-27 -22 -58 -50 74 -71 0
-28 -20 59 35 -67 68 0
-28 -20 59 35 67 -68 0
-28 -20 59 -35 -67 69 0
-28 -20 59 -35 67 -69 0
-28 -20 -59 35 -67 70 0
-28 -20 -59 35 67 -70 0
-28 -20 -59 -35 -67 71 0
-28 -20 -59 -35 67 -71 0
-28 -20 64 36 -72 68 0
-28 -20 64 36 72 -68 0
-28 -20 64 -36 -72 69 0
-28 -20 64 -36 72 -69 0
-28 -20 -64 36 -72 70 0
-28 -20 -64 36 72 -70 0
-28 -20 -64 -36 -72 71 0
-28 -20 -64 -36 72 -71 0
-28 -20 65 37 -73 68 0
-28 -20 65 37 73 -68 0
-28 -20 65 -37 -73 69 0
-28 -20 65 -37 73 -69 0
-28 -20 -65 37 -73 70 0
-28 -20 -65 37 73 -70 0
-28 -20 -65 -37 -73 71 0
-28 -20 -65 -37 73 -71 0
-28 -20 66 38 -74 68 0
-28 -20 66 38 74 -68 0
-28 -20 66 -38 -74 69 0
-28 -20 66 -38 74 -69 0
-28 -20 -66 38 -74 70 0
-28 -20 -66 38 74 -70 0
-28 -20 -66 -38 -74 71 0
-28 -20 -66 -38 74 -71 0
-28 -21 59 39 -67 68 0
-28 -21 59 39 67 -68 0
-28 -21 59 -39 -67 69 0
-28 -21 59 -39 67 -69 0
-28 -21 -59 39 -67 70 0
-28 -21 -59 39 67 -70 0
-28 -21 -59 -39 -67 71 0
-28 -21 -59 -39 67 -71 0
-28 -21 64 40 -72 68 0
-28 -21 64 40 72 -68 0
-28 -21 64 -40 -72 69 0
-28 -21 64 -40 72 -69 0
-28 -21 -64 40 -72 70 0
-28 -21 -64 40 72 -70 0
-28 -21 -64 -40 -72 71 0
-28 -21 -64 -40 72 -71 0
-28 -21 65 41 -73 68 0
-28 -21 65 41 73 -68 0
-28 -21 65 -41 -73 69 0
-28 -21 65 -41 73 -69 0
-28 -21 -65 41 -73 70 0
-28 -21 -65 41 73 -70 0
-28 -21 -65 -41 -73 71 0
-28 -21 -65 -41 73 -71 0
-28 -21 66 42 -74 68 0
-28 -21 66 42 74 -68 0
-28 -21 66 -42 -74 69 0
-28 -21 66 -42 74 -69 0
-28 -21 -66 42 -74 70 0
-28 -21 -66 42 74 -70 0
-28 -21 -66 -42 -74 71 0
-28 -21 -66 -42 74 -71 0
-28 -22 59 43 -67 68 0
-28 -22 59 43 67 -68 0
-28 -22 59 -43 -67 69 0
-28 -22 59 -43 67 -69 0
-28 -22 -59 43 -67 70 0
-28 -22 -59 43 67 -70 0
-28 -22 -59 -43 -67 71 0
-28 -22 -59 -43 67 -71 0
-28 -22 64 48 -72 68 0
-28 -22 64 48 72 -68 0
-28 -22 64 -48 -72 69 0
-28 -22 64 -48 72 -69 0
-28 -22 -64 48 -72 70 0
-28 -22 -64 48 72 -70 0
-28 -22 -64 -48 -72 71 0
-28 -22 -64 -48 72 -71 0
-28 -22 65 49 -73 68 0
-28 -22 65 49 73 -68 0
-28 -22 65 -49 -73 69 0
-28 -22 65 -49 73 -69 0
-28 -22 -65 49 -73 70 0
-28 -22 -65 49 73 -70 0
-28 -22 -65 -49 -73 71 0
-28 -22 -65 -49 73 -71 0
-28 -22 66 50 -74 68 0
-28 -22 66 50 74 -68 0
-28 -22 66 -50 -74 69 0
-28 -22 66 -50 74 -69 0
-28 -22 -66 50 -74 70 0
-28 -22 -66 50 74 -70 0
-28 -22 -66 -50 -74 71 0
-28 -22 -66 -50 74 -71 0
-28 -23 59 51 -67 68 0
-28 -23 59 51 67 -68 0
-28 -23 59 -51 -67 69 0
-28 -23 59 -51 67 -69 0
-28 -23 -59 51 -67 70 0
-28 -23 -59 51 67 -70 0
-28 -23 -59 -51 -67 71 0
-28 -23 -59 -51 67 -71 0
-28 -23 64 56 -72 68 0
-28 -23 64 56 72 -68 0
-28 -23 64 -56 -72 69 0
-28 -23 64 -56 72 -69 0
-28 -23 -64 56 -72 70 0
-28 -23 -64 56 72 -70 0
-28 -23 -64 -56 -72 71 0
-28 -23 -64 -56 72 -71 0
-28 -23 65 57 -73 68 0
-28 -23 65 57 73 -68 0
-28 -23 65 -57 -73 69 0
-28 -23 65 -57 73 -69 0
-28 -23 -65 57 -73 70 0
-28 -23 -65 57 73 -70 0
-28 -23 -65 -57 -73 71 0
-28 -23 -65 -57 73 -71 0
-28 -23 66 58 -74 68 0
-28 -23 66 58 74 -68 0
-28 -23 66 -58 -74 69 0
-28 -23 66 -58 74 -69 0
-28 -23 -66 58 -74 70 0
-28 -23 -66 58 74 -70 0
-28 -23 -66 -58 -74 71 0
-28 -23 -66 -58 74 -71 0
c outputs match truth table
-30 -35 0
-29 -39 0
-31 -43 0
-32 -51 0
-33 -59 0
-34 -67 0
-30 36 0
-29 40 0
-31 48 0
-32 56 0
-33 64 0
-34 72 0
-30 37 0
-29 41 0
-31 49 0
-32 57 0
-33 65 0
-34 73 0
-30 -38 0
-29 -42 0
-31 -50 0
-32 -58 0
-33 -66 0
-34 -74 0
c internal gates restricted to a subset of functions
44 45 46 47 0
44 45 -46 47 0
44 45 -46 -47 0
44 -45 46 47 0
44 -45 46 -47 0
44 -45 -46 47 0
-44 45 46 47 0
-44 45 46 -47 0
-44 45 -46 -47 0
-44 -45 46 47 0
-44 -45 46 -47 0
-44 -45 -46 47 0
-44 -45 -46 -47 0
52 53 54 55 0
52 53 -54 55 0
52 53 -54 -55 0
52 -53 54 55 0
52 -53 54 -55 0
52 -53 -54 55 0
-52 53 54 55 0
-52 53 54 -55 0
-52 53 -54 -55 0
-52 -53 54 55 0
-52 -53 54 -55 0
-52 -53 -54 55 0
-52 -53 -54 -55 0
60 61 62 63 0
60 61 -62 63 0
60 61 -62 -63 0
60 -61 62 63 0
60 -61 62 -63 0
60 -61 -62 63 0
-60 61 62 63 0
-60 61 62 -63 0
-60 61 -62 -63 0
-60 -61 62 63 0
-60 -61 62 -63 0
-60 -61 -62 63 0
-60 -61 -62 -63 0
68 69 70 71 0
68 69 -70 71 0
68 69 -70 -71 0
68 -69 70 71 0
68 -69 70 -71 0
68 -69 -70 71 0
-68 69 70 71 0
-68 69 70 -71 0
-68 69 -70 -71 0
-68 -69 70 71 0
-68 -69 70 -71 0
-68 -69 -70 71 0
-68 -69 -70 -71 0
c variable names:
c c_2_0_0 1
c c_2_1_0 2
c c_2_1_1 3
c c_2_0_1 4
c c_3_0_0 5
c c_3_1_0 6
c c_3_1_1 7
c c_3_1_2 8
c c_3_0_1 9
c c_3_0_2 10
c c_4_0_0 11
c c_4_1_0 12
c c_4_1_1 13
c c_4_1_2 14
c c_4_1_3 15
c c_4_0_1 16
c c_4_0_2 17
c c_4_0_3 18
c c_5_0_0 19
c c_5_1_0 20
c c_5_1_1 21
c c_5_1_2 22
c c_5_1_3 23
c c_5_1_4 24
c c_5_0_1 25
c c_5_0_2 26
c c_5_0_3 27
c c_5_0_4 28
c o_1_0 29
c o_0_0 30
c o_2_0 31
c o_3_0 32
c o_4_0 33
c o_5_0 34
c v_0_0 35
c v_0_1 36
c v_0_2 37
c v_0_3 38
c v_1_0 39
c v_1_1 40
c v_1_2 41
c v_1_3 42
c v_2_0 43
c t_2_0_0 44
c t_2_0_1 45
c t_2_1_0 46
c t_2_1_1 47
c v_2_1 48
c v_2_2 49
c v_2_3 50
c v_3_0 51
c t_3_0_0 52
c t_3_0_1 53
c t_3_1_0 54
c t_3_1_1 55
c v_3_1 56
c v_3_2 57
c v_3_3 58
c v_4_0 59
c t_4_0_0 60
c t_4_0_1 61
c t_4_1_0 62
c t_4_1_1 63
c v_4_1 64
c v_4_2 65
c v_4_3 66
c v_5_0 67
c t_5_0_0 68
c t_5_0_1 69
c t_5_1_0 70
c t_5_1_1 71
c v_5_1 72
c v_5_2 73
c v_5_3 74
